NAME : Unnamed.894.tour
COMMENT : Length = 894
COMMENT : Found by LKH [Keld Helsgaun] Wed Oct 22 13:40:23 2014
TYPE : TOUR
DIMENSION : 108
TOUR_SECTION
1
12
106
91
16
2
6
5
84
93
86
72
71
83
66
82
88
89
59
31
40
43
53
35
63
38
19
61
52
48
62
49
55
22
69
75
98
107
95
78
80
77
90
74
76
104
105
103
102
100
96
70
30
47
64
21
58
33
44
54
60
20
26
27
25
45
87
46
32
34
37
56
28
57
65
36
41
29
24
23
42
39
51
50
18
68
85
67
94
92
73
79
81
101
97
99
11
9
3
4
15
14
7
10
13
8
108
17
-1
EOF
